(set-logic ALL )
(set-option :produce-models true )
(declare-fun r0 ()
Int )
(declare-fun r1 ()
Int )
(declare-fun r2 ()
Int )
(declare-fun r3 ()
Int )
(declare-fun r4 ()
Int )
(declare-fun r5 ()
Int )
(declare-fun r6 ()
Int )
(declare-fun r7 ()
Int )
(declare-fun r8 ()
Int )
(declare-fun r9 ()
Int )
(declare-fun r10 ()
Int )
(declare-fun r11 ()
Int )
(declare-fun r12 ()
Int )
(declare-fun r13 ()
Int )
(declare-fun r14 ()
Int )
(declare-fun r15 ()
Int )
(declare-fun r16 ()
Int )
(declare-fun r17 ()
Int )
(declare-fun r18 ()
Int )
(declare-fun r19 ()
Int )
(declare-fun r20 ()
Int )
(declare-fun r21 ()
Int )
(declare-fun r22 ()
Int )
(declare-fun r23 ()
Int )
(declare-fun r24 ()
Int )
(declare-fun r25 ()
Int )
(declare-fun r26 ()
Int )
(declare-fun r27 ()
Int )
(declare-fun r28 ()
Int )
(declare-fun r29 ()
Int )
(assert (and (>= r0 0 )
(< r0 30 )
)
)
(assert (and (>= r1 0 )
(< r1 30 )
)
)
(assert (and (>= r2 0 )
(< r2 30 )
)
)
(assert (and (>= r3 0 )
(< r3 30 )
)
)
(assert (and (>= r4 0 )
(< r4 30 )
)
)
(assert (and (>= r5 0 )
(< r5 30 )
)
)
(assert (and (>= r6 0 )
(< r6 30 )
)
)
(assert (and (>= r7 0 )
(< r7 30 )
)
)
(assert (and (>= r8 0 )
(< r8 30 )
)
)
(assert (and (>= r9 0 )
(< r9 30 )
)
)
(assert (and (>= r10 0 )
(< r10 30 )
)
)
(assert (and (>= r11 0 )
(< r11 30 )
)
)
(assert (and (>= r12 0 )
(< r12 30 )
)
)
(assert (and (>= r13 0 )
(< r13 30 )
)
)
(assert (and (>= r14 0 )
(< r14 30 )
)
)
(assert (and (>= r15 0 )
(< r15 30 )
)
)
(assert (and (>= r16 0 )
(< r16 30 )
)
)
(assert (and (>= r17 0 )
(< r17 30 )
)
)
(assert (and (>= r18 0 )
(< r18 30 )
)
)
(assert (and (>= r19 0 )
(< r19 30 )
)
)
(assert (and (>= r20 0 )
(< r20 30 )
)
)
(assert (and (>= r21 0 )
(< r21 30 )
)
)
(assert (and (>= r22 0 )
(< r22 30 )
)
)
(assert (and (>= r23 0 )
(< r23 30 )
)
)
(assert (and (>= r24 0 )
(< r24 30 )
)
)
(assert (and (>= r25 0 )
(< r25 30 )
)
)
(assert (and (>= r26 0 )
(< r26 30 )
)
)
(assert (and (>= r27 0 )
(< r27 30 )
)
)
(assert (and (>= r28 0 )
(< r28 30 )
)
)
(assert (and (>= r29 0 )
(< r29 30 )
)
)
(assert (distinct r0 r1 r2 r3 r4 r5 r6 r7 r8 r9 r10 r11 r12 r13 r14 r15 r16 r17 r18 r19 r20 r21 r22 r23 r24 r25 r26 r27 r28 r29 )
)
(define-fun diagonal-threat ((x1 Int )
(y1 Int )
(x2 Int )
(y2 Int )
)
Bool (= (abs (- x1 x2 )
)
(abs (- y1 y2 )
)
)
)
(assert (not (diagonal-threat r0 0 r1 1 )
)
)
(assert (not (diagonal-threat r0 0 r2 2 )
)
)
(assert (not (diagonal-threat r0 0 r3 3 )
)
)
(assert (not (diagonal-threat r0 0 r4 4 )
)
)
(assert (not (diagonal-threat r0 0 r5 5 )
)
)
(assert (not (diagonal-threat r0 0 r6 6 )
)
)
(assert (not (diagonal-threat r0 0 r7 7 )
)
)
(assert (not (diagonal-threat r0 0 r8 8 )
)
)
(assert (not (diagonal-threat r0 0 r9 9 )
)
)
(assert (not (diagonal-threat r0 0 r10 10 )
)
)
(assert (not (diagonal-threat r0 0 r11 11 )
)
)
(assert (not (diagonal-threat r0 0 r12 12 )
)
)
(assert (not (diagonal-threat r0 0 r13 13 )
)
)
(assert (not (diagonal-threat r0 0 r14 14 )
)
)
(assert (not (diagonal-threat r0 0 r15 15 )
)
)
(assert (not (diagonal-threat r0 0 r16 16 )
)
)
(assert (not (diagonal-threat r0 0 r17 17 )
)
)
(assert (not (diagonal-threat r0 0 r18 18 )
)
)
(assert (not (diagonal-threat r0 0 r19 19 )
)
)
(assert (not (diagonal-threat r0 0 r20 20 )
)
)
(assert (not (diagonal-threat r0 0 r21 21 )
)
)
(assert (not (diagonal-threat r0 0 r22 22 )
)
)
(assert (not (diagonal-threat r0 0 r23 23 )
)
)
(assert (not (diagonal-threat r0 0 r24 24 )
)
)
(assert (not (diagonal-threat r0 0 r25 25 )
)
)
(assert (not (diagonal-threat r0 0 r26 26 )
)
)
(assert (not (diagonal-threat r0 0 r27 27 )
)
)
(assert (not (diagonal-threat r0 0 r28 28 )
)
)
(assert (not (diagonal-threat r0 0 r29 29 )
)
)
(assert (not (diagonal-threat r1 1 r2 2 )
)
)
(assert (not (diagonal-threat r1 1 r3 3 )
)
)
(assert (not (diagonal-threat r1 1 r4 4 )
)
)
(assert (not (diagonal-threat r1 1 r5 5 )
)
)
(assert (not (diagonal-threat r1 1 r6 6 )
)
)
(assert (not (diagonal-threat r1 1 r7 7 )
)
)
(assert (not (diagonal-threat r1 1 r8 8 )
)
)
(assert (not (diagonal-threat r1 1 r9 9 )
)
)
(assert (not (diagonal-threat r1 1 r10 10 )
)
)
(assert (not (diagonal-threat r1 1 r11 11 )
)
)
(assert (not (diagonal-threat r1 1 r12 12 )
)
)
(assert (not (diagonal-threat r1 1 r13 13 )
)
)
(assert (not (diagonal-threat r1 1 r14 14 )
)
)
(assert (not (diagonal-threat r1 1 r15 15 )
)
)
(assert (not (diagonal-threat r1 1 r16 16 )
)
)
(assert (not (diagonal-threat r1 1 r17 17 )
)
)
(assert (not (diagonal-threat r1 1 r18 18 )
)
)
(assert (not (diagonal-threat r1 1 r19 19 )
)
)
(assert (not (diagonal-threat r1 1 r20 20 )
)
)
(assert (not (diagonal-threat r1 1 r21 21 )
)
)
(assert (not (diagonal-threat r1 1 r22 22 )
)
)
(assert (not (diagonal-threat r1 1 r23 23 )
)
)
(assert (not (diagonal-threat r1 1 r24 24 )
)
)
(assert (not (diagonal-threat r1 1 r25 25 )
)
)
(assert (not (diagonal-threat r1 1 r26 26 )
)
)
(assert (not (diagonal-threat r1 1 r27 27 )
)
)
(assert (not (diagonal-threat r1 1 r28 28 )
)
)
(assert (not (diagonal-threat r1 1 r29 29 )
)
)
(assert (not (diagonal-threat r2 2 r3 3 )
)
)
(assert (not (diagonal-threat r2 2 r4 4 )
)
)
(assert (not (diagonal-threat r2 2 r5 5 )
)
)
(assert (not (diagonal-threat r2 2 r6 6 )
)
)
(assert (not (diagonal-threat r2 2 r7 7 )
)
)
(assert (not (diagonal-threat r2 2 r8 8 )
)
)
(assert (not (diagonal-threat r2 2 r9 9 )
)
)
(assert (not (diagonal-threat r2 2 r10 10 )
)
)
(assert (not (diagonal-threat r2 2 r11 11 )
)
)
(assert (not (diagonal-threat r2 2 r12 12 )
)
)
(assert (not (diagonal-threat r2 2 r13 13 )
)
)
(assert (not (diagonal-threat r2 2 r14 14 )
)
)
(assert (not (diagonal-threat r2 2 r15 15 )
)
)
(assert (not (diagonal-threat r2 2 r16 16 )
)
)
(assert (not (diagonal-threat r2 2 r17 17 )
)
)
(assert (not (diagonal-threat r2 2 r18 18 )
)
)
(assert (not (diagonal-threat r2 2 r19 19 )
)
)
(assert (not (diagonal-threat r2 2 r20 20 )
)
)
(assert (not (diagonal-threat r2 2 r21 21 )
)
)
(assert (not (diagonal-threat r2 2 r22 22 )
)
)
(assert (not (diagonal-threat r2 2 r23 23 )
)
)
(assert (not (diagonal-threat r2 2 r24 24 )
)
)
(assert (not (diagonal-threat r2 2 r25 25 )
)
)
(assert (not (diagonal-threat r2 2 r26 26 )
)
)
(assert (not (diagonal-threat r2 2 r27 27 )
)
)
(assert (not (diagonal-threat r2 2 r28 28 )
)
)
(assert (not (diagonal-threat r2 2 r29 29 )
)
)
(assert (not (diagonal-threat r3 3 r4 4 )
)
)
(assert (not (diagonal-threat r3 3 r5 5 )
)
)
(assert (not (diagonal-threat r3 3 r6 6 )
)
)
(assert (not (diagonal-threat r3 3 r7 7 )
)
)
(assert (not (diagonal-threat r3 3 r8 8 )
)
)
(assert (not (diagonal-threat r3 3 r9 9 )
)
)
(assert (not (diagonal-threat r3 3 r10 10 )
)
)
(assert (not (diagonal-threat r3 3 r11 11 )
)
)
(assert (not (diagonal-threat r3 3 r12 12 )
)
)
(assert (not (diagonal-threat r3 3 r13 13 )
)
)
(assert (not (diagonal-threat r3 3 r14 14 )
)
)
(assert (not (diagonal-threat r3 3 r15 15 )
)
)
(assert (not (diagonal-threat r3 3 r16 16 )
)
)
(assert (not (diagonal-threat r3 3 r17 17 )
)
)
(assert (not (diagonal-threat r3 3 r18 18 )
)
)
(assert (not (diagonal-threat r3 3 r19 19 )
)
)
(assert (not (diagonal-threat r3 3 r20 20 )
)
)
(assert (not (diagonal-threat r3 3 r21 21 )
)
)
(assert (not (diagonal-threat r3 3 r22 22 )
)
)
(assert (not (diagonal-threat r3 3 r23 23 )
)
)
(assert (not (diagonal-threat r3 3 r24 24 )
)
)
(assert (not (diagonal-threat r3 3 r25 25 )
)
)
(assert (not (diagonal-threat r3 3 r26 26 )
)
)
(assert (not (diagonal-threat r3 3 r27 27 )
)
)
(assert (not (diagonal-threat r3 3 r28 28 )
)
)
(assert (not (diagonal-threat r3 3 r29 29 )
)
)
(assert (not (diagonal-threat r4 4 r5 5 )
)
)
(assert (not (diagonal-threat r4 4 r6 6 )
)
)
(assert (not (diagonal-threat r4 4 r7 7 )
)
)
(assert (not (diagonal-threat r4 4 r8 8 )
)
)
(assert (not (diagonal-threat r4 4 r9 9 )
)
)
(assert (not (diagonal-threat r4 4 r10 10 )
)
)
(assert (not (diagonal-threat r4 4 r11 11 )
)
)
(assert (not (diagonal-threat r4 4 r12 12 )
)
)
(assert (not (diagonal-threat r4 4 r13 13 )
)
)
(assert (not (diagonal-threat r4 4 r14 14 )
)
)
(assert (not (diagonal-threat r4 4 r15 15 )
)
)
(assert (not (diagonal-threat r4 4 r16 16 )
)
)
(assert (not (diagonal-threat r4 4 r17 17 )
)
)
(assert (not (diagonal-threat r4 4 r18 18 )
)
)
(assert (not (diagonal-threat r4 4 r19 19 )
)
)
(assert (not (diagonal-threat r4 4 r20 20 )
)
)
(assert (not (diagonal-threat r4 4 r21 21 )
)
)
(assert (not (diagonal-threat r4 4 r22 22 )
)
)
(assert (not (diagonal-threat r4 4 r23 23 )
)
)
(assert (not (diagonal-threat r4 4 r24 24 )
)
)
(assert (not (diagonal-threat r4 4 r25 25 )
)
)
(assert (not (diagonal-threat r4 4 r26 26 )
)
)
(assert (not (diagonal-threat r4 4 r27 27 )
)
)
(assert (not (diagonal-threat r4 4 r28 28 )
)
)
(assert (not (diagonal-threat r4 4 r29 29 )
)
)
(assert (not (diagonal-threat r5 5 r6 6 )
)
)
(assert (not (diagonal-threat r5 5 r7 7 )
)
)
(assert (not (diagonal-threat r5 5 r8 8 )
)
)
(assert (not (diagonal-threat r5 5 r9 9 )
)
)
(assert (not (diagonal-threat r5 5 r10 10 )
)
)
(assert (not (diagonal-threat r5 5 r11 11 )
)
)
(assert (not (diagonal-threat r5 5 r12 12 )
)
)
(assert (not (diagonal-threat r5 5 r13 13 )
)
)
(assert (not (diagonal-threat r5 5 r14 14 )
)
)
(assert (not (diagonal-threat r5 5 r15 15 )
)
)
(assert (not (diagonal-threat r5 5 r16 16 )
)
)
(assert (not (diagonal-threat r5 5 r17 17 )
)
)
(assert (not (diagonal-threat r5 5 r18 18 )
)
)
(assert (not (diagonal-threat r5 5 r19 19 )
)
)
(assert (not (diagonal-threat r5 5 r20 20 )
)
)
(assert (not (diagonal-threat r5 5 r21 21 )
)
)
(assert (not (diagonal-threat r5 5 r22 22 )
)
)
(assert (not (diagonal-threat r5 5 r23 23 )
)
)
(assert (not (diagonal-threat r5 5 r24 24 )
)
)
(assert (not (diagonal-threat r5 5 r25 25 )
)
)
(assert (not (diagonal-threat r5 5 r26 26 )
)
)
(assert (not (diagonal-threat r5 5 r27 27 )
)
)
(assert (not (diagonal-threat r5 5 r28 28 )
)
)
(assert (not (diagonal-threat r5 5 r29 29 )
)
)
(assert (not (diagonal-threat r6 6 r7 7 )
)
)
(assert (not (diagonal-threat r6 6 r8 8 )
)
)
(assert (not (diagonal-threat r6 6 r9 9 )
)
)
(assert (not (diagonal-threat r6 6 r10 10 )
)
)
(assert (not (diagonal-threat r6 6 r11 11 )
)
)
(assert (not (diagonal-threat r6 6 r12 12 )
)
)
(assert (not (diagonal-threat r6 6 r13 13 )
)
)
(assert (not (diagonal-threat r6 6 r14 14 )
)
)
(assert (not (diagonal-threat r6 6 r15 15 )
)
)
(assert (not (diagonal-threat r6 6 r16 16 )
)
)
(assert (not (diagonal-threat r6 6 r17 17 )
)
)
(assert (not (diagonal-threat r6 6 r18 18 )
)
)
(assert (not (diagonal-threat r6 6 r19 19 )
)
)
(assert (not (diagonal-threat r6 6 r20 20 )
)
)
(assert (not (diagonal-threat r6 6 r21 21 )
)
)
(assert (not (diagonal-threat r6 6 r22 22 )
)
)
(assert (not (diagonal-threat r6 6 r23 23 )
)
)
(assert (not (diagonal-threat r6 6 r24 24 )
)
)
(assert (not (diagonal-threat r6 6 r25 25 )
)
)
(assert (not (diagonal-threat r6 6 r26 26 )
)
)
(assert (not (diagonal-threat r6 6 r27 27 )
)
)
(assert (not (diagonal-threat r6 6 r28 28 )
)
)
(assert (not (diagonal-threat r6 6 r29 29 )
)
)
(assert (not (diagonal-threat r7 7 r8 8 )
)
)
(assert (not (diagonal-threat r7 7 r9 9 )
)
)
(assert (not (diagonal-threat r7 7 r10 10 )
)
)
(assert (not (diagonal-threat r7 7 r11 11 )
)
)
(assert (not (diagonal-threat r7 7 r12 12 )
)
)
(assert (not (diagonal-threat r7 7 r13 13 )
)
)
(assert (not (diagonal-threat r7 7 r14 14 )
)
)
(assert (not (diagonal-threat r7 7 r15 15 )
)
)
(assert (not (diagonal-threat r7 7 r16 16 )
)
)
(assert (not (diagonal-threat r7 7 r17 17 )
)
)
(assert (not (diagonal-threat r7 7 r18 18 )
)
)
(assert (not (diagonal-threat r7 7 r19 19 )
)
)
(assert (not (diagonal-threat r7 7 r20 20 )
)
)
(assert (not (diagonal-threat r7 7 r21 21 )
)
)
(assert (not (diagonal-threat r7 7 r22 22 )
)
)
(assert (not (diagonal-threat r7 7 r23 23 )
)
)
(assert (not (diagonal-threat r7 7 r24 24 )
)
)
(assert (not (diagonal-threat r7 7 r25 25 )
)
)
(assert (not (diagonal-threat r7 7 r26 26 )
)
)
(assert (not (diagonal-threat r7 7 r27 27 )
)
)
(assert (not (diagonal-threat r7 7 r28 28 )
)
)
(assert (not (diagonal-threat r7 7 r29 29 )
)
)
(assert (not (diagonal-threat r8 8 r9 9 )
)
)
(assert (not (diagonal-threat r8 8 r10 10 )
)
)
(assert (not (diagonal-threat r8 8 r11 11 )
)
)
(assert (not (diagonal-threat r8 8 r12 12 )
)
)
(assert (not (diagonal-threat r8 8 r13 13 )
)
)
(assert (not (diagonal-threat r8 8 r14 14 )
)
)
(assert (not (diagonal-threat r8 8 r15 15 )
)
)
(assert (not (diagonal-threat r8 8 r16 16 )
)
)
(assert (not (diagonal-threat r8 8 r17 17 )
)
)
(assert (not (diagonal-threat r8 8 r18 18 )
)
)
(assert (not (diagonal-threat r8 8 r19 19 )
)
)
(assert (not (diagonal-threat r8 8 r20 20 )
)
)
(assert (not (diagonal-threat r8 8 r21 21 )
)
)
(assert (not (diagonal-threat r8 8 r22 22 )
)
)
(assert (not (diagonal-threat r8 8 r23 23 )
)
)
(assert (not (diagonal-threat r8 8 r24 24 )
)
)
(assert (not (diagonal-threat r8 8 r25 25 )
)
)
(assert (not (diagonal-threat r8 8 r26 26 )
)
)
(assert (not (diagonal-threat r8 8 r27 27 )
)
)
(assert (not (diagonal-threat r8 8 r28 28 )
)
)
(assert (not (diagonal-threat r8 8 r29 29 )
)
)
(assert (not (diagonal-threat r9 9 r10 10 )
)
)
(assert (not (diagonal-threat r9 9 r11 11 )
)
)
(assert (not (diagonal-threat r9 9 r12 12 )
)
)
(assert (not (diagonal-threat r9 9 r13 13 )
)
)
(assert (not (diagonal-threat r9 9 r14 14 )
)
)
(assert (not (diagonal-threat r9 9 r15 15 )
)
)
(assert (not (diagonal-threat r9 9 r16 16 )
)
)
(assert (not (diagonal-threat r9 9 r17 17 )
)
)
(assert (not (diagonal-threat r9 9 r18 18 )
)
)
(assert (not (diagonal-threat r9 9 r19 19 )
)
)
(assert (not (diagonal-threat r9 9 r20 20 )
)
)
(assert (not (diagonal-threat r9 9 r21 21 )
)
)
(assert (not (diagonal-threat r9 9 r22 22 )
)
)
(assert (not (diagonal-threat r9 9 r23 23 )
)
)
(assert (not (diagonal-threat r9 9 r24 24 )
)
)
(assert (not (diagonal-threat r9 9 r25 25 )
)
)
(assert (not (diagonal-threat r9 9 r26 26 )
)
)
(assert (not (diagonal-threat r9 9 r27 27 )
)
)
(assert (not (diagonal-threat r9 9 r28 28 )
)
)
(assert (not (diagonal-threat r9 9 r29 29 )
)
)
(assert (not (diagonal-threat r10 10 r11 11 )
)
)
(assert (not (diagonal-threat r10 10 r12 12 )
)
)
(assert (not (diagonal-threat r10 10 r13 13 )
)
)
(assert (not (diagonal-threat r10 10 r14 14 )
)
)
(assert (not (diagonal-threat r10 10 r15 15 )
)
)
(assert (not (diagonal-threat r10 10 r16 16 )
)
)
(assert (not (diagonal-threat r10 10 r17 17 )
)
)
(assert (not (diagonal-threat r10 10 r18 18 )
)
)
(assert (not (diagonal-threat r10 10 r19 19 )
)
)
(assert (not (diagonal-threat r10 10 r20 20 )
)
)
(assert (not (diagonal-threat r10 10 r21 21 )
)
)
(assert (not (diagonal-threat r10 10 r22 22 )
)
)
(assert (not (diagonal-threat r10 10 r23 23 )
)
)
(assert (not (diagonal-threat r10 10 r24 24 )
)
)
(assert (not (diagonal-threat r10 10 r25 25 )
)
)
(assert (not (diagonal-threat r10 10 r26 26 )
)
)
(assert (not (diagonal-threat r10 10 r27 27 )
)
)
(assert (not (diagonal-threat r10 10 r28 28 )
)
)
(assert (not (diagonal-threat r10 10 r29 29 )
)
)
(assert (not (diagonal-threat r11 11 r12 12 )
)
)
(assert (not (diagonal-threat r11 11 r13 13 )
)
)
(assert (not (diagonal-threat r11 11 r14 14 )
)
)
(assert (not (diagonal-threat r11 11 r15 15 )
)
)
(assert (not (diagonal-threat r11 11 r16 16 )
)
)
(assert (not (diagonal-threat r11 11 r17 17 )
)
)
(assert (not (diagonal-threat r11 11 r18 18 )
)
)
(assert (not (diagonal-threat r11 11 r19 19 )
)
)
(assert (not (diagonal-threat r11 11 r20 20 )
)
)
(assert (not (diagonal-threat r11 11 r21 21 )
)
)
(assert (not (diagonal-threat r11 11 r22 22 )
)
)
(assert (not (diagonal-threat r11 11 r23 23 )
)
)
(assert (not (diagonal-threat r11 11 r24 24 )
)
)
(assert (not (diagonal-threat r11 11 r25 25 )
)
)
(assert (not (diagonal-threat r11 11 r26 26 )
)
)
(assert (not (diagonal-threat r11 11 r27 27 )
)
)
(assert (not (diagonal-threat r11 11 r28 28 )
)
)
(assert (not (diagonal-threat r11 11 r29 29 )
)
)
(assert (not (diagonal-threat r12 12 r13 13 )
)
)
(assert (not (diagonal-threat r12 12 r14 14 )
)
)
(assert (not (diagonal-threat r12 12 r15 15 )
)
)
(assert (not (diagonal-threat r12 12 r16 16 )
)
)
(assert (not (diagonal-threat r12 12 r17 17 )
)
)
(assert (not (diagonal-threat r12 12 r18 18 )
)
)
(assert (not (diagonal-threat r12 12 r19 19 )
)
)
(assert (not (diagonal-threat r12 12 r20 20 )
)
)
(assert (not (diagonal-threat r12 12 r21 21 )
)
)
(assert (not (diagonal-threat r12 12 r22 22 )
)
)
(assert (not (diagonal-threat r12 12 r23 23 )
)
)
(assert (not (diagonal-threat r12 12 r24 24 )
)
)
(assert (not (diagonal-threat r12 12 r25 25 )
)
)
(assert (not (diagonal-threat r12 12 r26 26 )
)
)
(assert (not (diagonal-threat r12 12 r27 27 )
)
)
(assert (not (diagonal-threat r12 12 r28 28 )
)
)
(assert (not (diagonal-threat r12 12 r29 29 )
)
)
(assert (not (diagonal-threat r13 13 r14 14 )
)
)
(assert (not (diagonal-threat r13 13 r15 15 )
)
)
(assert (not (diagonal-threat r13 13 r16 16 )
)
)
(assert (not (diagonal-threat r13 13 r17 17 )
)
)
(assert (not (diagonal-threat r13 13 r18 18 )
)
)
(assert (not (diagonal-threat r13 13 r19 19 )
)
)
(assert (not (diagonal-threat r13 13 r20 20 )
)
)
(assert (not (diagonal-threat r13 13 r21 21 )
)
)
(assert (not (diagonal-threat r13 13 r22 22 )
)
)
(assert (not (diagonal-threat r13 13 r23 23 )
)
)
(assert (not (diagonal-threat r13 13 r24 24 )
)
)
(assert (not (diagonal-threat r13 13 r25 25 )
)
)
(assert (not (diagonal-threat r13 13 r26 26 )
)
)
(assert (not (diagonal-threat r13 13 r27 27 )
)
)
(assert (not (diagonal-threat r13 13 r28 28 )
)
)
(assert (not (diagonal-threat r13 13 r29 29 )
)
)
(assert (not (diagonal-threat r14 14 r15 15 )
)
)
(assert (not (diagonal-threat r14 14 r16 16 )
)
)
(assert (not (diagonal-threat r14 14 r17 17 )
)
)
(assert (not (diagonal-threat r14 14 r18 18 )
)
)
(assert (not (diagonal-threat r14 14 r19 19 )
)
)
(assert (not (diagonal-threat r14 14 r20 20 )
)
)
(assert (not (diagonal-threat r14 14 r21 21 )
)
)
(assert (not (diagonal-threat r14 14 r22 22 )
)
)
(assert (not (diagonal-threat r14 14 r23 23 )
)
)
(assert (not (diagonal-threat r14 14 r24 24 )
)
)
(assert (not (diagonal-threat r14 14 r25 25 )
)
)
(assert (not (diagonal-threat r14 14 r26 26 )
)
)
(assert (not (diagonal-threat r14 14 r27 27 )
)
)
(assert (not (diagonal-threat r14 14 r28 28 )
)
)
(assert (not (diagonal-threat r14 14 r29 29 )
)
)
(assert (not (diagonal-threat r15 15 r16 16 )
)
)
(assert (not (diagonal-threat r15 15 r17 17 )
)
)
(assert (not (diagonal-threat r15 15 r18 18 )
)
)
(assert (not (diagonal-threat r15 15 r19 19 )
)
)
(assert (not (diagonal-threat r15 15 r20 20 )
)
)
(assert (not (diagonal-threat r15 15 r21 21 )
)
)
(assert (not (diagonal-threat r15 15 r22 22 )
)
)
(assert (not (diagonal-threat r15 15 r23 23 )
)
)
(assert (not (diagonal-threat r15 15 r24 24 )
)
)
(assert (not (diagonal-threat r15 15 r25 25 )
)
)
(assert (not (diagonal-threat r15 15 r26 26 )
)
)
(assert (not (diagonal-threat r15 15 r27 27 )
)
)
(assert (not (diagonal-threat r15 15 r28 28 )
)
)
(assert (not (diagonal-threat r15 15 r29 29 )
)
)
(assert (not (diagonal-threat r16 16 r17 17 )
)
)
(assert (not (diagonal-threat r16 16 r18 18 )
)
)
(assert (not (diagonal-threat r16 16 r19 19 )
)
)
(assert (not (diagonal-threat r16 16 r20 20 )
)
)
(assert (not (diagonal-threat r16 16 r21 21 )
)
)
(assert (not (diagonal-threat r16 16 r22 22 )
)
)
(assert (not (diagonal-threat r16 16 r23 23 )
)
)
(assert (not (diagonal-threat r16 16 r24 24 )
)
)
(assert (not (diagonal-threat r16 16 r25 25 )
)
)
(assert (not (diagonal-threat r16 16 r26 26 )
)
)
(assert (not (diagonal-threat r16 16 r27 27 )
)
)
(assert (not (diagonal-threat r16 16 r28 28 )
)
)
(assert (not (diagonal-threat r16 16 r29 29 )
)
)
(assert (not (diagonal-threat r17 17 r18 18 )
)
)
(assert (not (diagonal-threat r17 17 r19 19 )
)
)
(assert (not (diagonal-threat r17 17 r20 20 )
)
)
(assert (not (diagonal-threat r17 17 r21 21 )
)
)
(assert (not (diagonal-threat r17 17 r22 22 )
)
)
(assert (not (diagonal-threat r17 17 r23 23 )
)
)
(assert (not (diagonal-threat r17 17 r24 24 )
)
)
(assert (not (diagonal-threat r17 17 r25 25 )
)
)
(assert (not (diagonal-threat r17 17 r26 26 )
)
)
(assert (not (diagonal-threat r17 17 r27 27 )
)
)
(assert (not (diagonal-threat r17 17 r28 28 )
)
)
(assert (not (diagonal-threat r17 17 r29 29 )
)
)
(assert (not (diagonal-threat r18 18 r19 19 )
)
)
(assert (not (diagonal-threat r18 18 r20 20 )
)
)
(assert (not (diagonal-threat r18 18 r21 21 )
)
)
(assert (not (diagonal-threat r18 18 r22 22 )
)
)
(assert (not (diagonal-threat r18 18 r23 23 )
)
)
(assert (not (diagonal-threat r18 18 r24 24 )
)
)
(assert (not (diagonal-threat r18 18 r25 25 )
)
)
(assert (not (diagonal-threat r18 18 r26 26 )
)
)
(assert (not (diagonal-threat r18 18 r27 27 )
)
)
(assert (not (diagonal-threat r18 18 r28 28 )
)
)
(assert (not (diagonal-threat r18 18 r29 29 )
)
)
(assert (not (diagonal-threat r19 19 r20 20 )
)
)
(assert (not (diagonal-threat r19 19 r21 21 )
)
)
(assert (not (diagonal-threat r19 19 r22 22 )
)
)
(assert (not (diagonal-threat r19 19 r23 23 )
)
)
(assert (not (diagonal-threat r19 19 r24 24 )
)
)
(assert (not (diagonal-threat r19 19 r25 25 )
)
)
(assert (not (diagonal-threat r19 19 r26 26 )
)
)
(assert (not (diagonal-threat r19 19 r27 27 )
)
)
(assert (not (diagonal-threat r19 19 r28 28 )
)
)
(assert (not (diagonal-threat r19 19 r29 29 )
)
)
(assert (not (diagonal-threat r20 20 r21 21 )
)
)
(assert (not (diagonal-threat r20 20 r22 22 )
)
)
(assert (not (diagonal-threat r20 20 r23 23 )
)
)
(assert (not (diagonal-threat r20 20 r24 24 )
)
)
(assert (not (diagonal-threat r20 20 r25 25 )
)
)
(assert (not (diagonal-threat r20 20 r26 26 )
)
)
(assert (not (diagonal-threat r20 20 r27 27 )
)
)
(assert (not (diagonal-threat r20 20 r28 28 )
)
)
(assert (not (diagonal-threat r20 20 r29 29 )
)
)
(assert (not (diagonal-threat r21 21 r22 22 )
)
)
(assert (not (diagonal-threat r21 21 r23 23 )
)
)
(assert (not (diagonal-threat r21 21 r24 24 )
)
)
(assert (not (diagonal-threat r21 21 r25 25 )
)
)
(assert (not (diagonal-threat r21 21 r26 26 )
)
)
(assert (not (diagonal-threat r21 21 r27 27 )
)
)
(assert (not (diagonal-threat r21 21 r28 28 )
)
)
(assert (not (diagonal-threat r21 21 r29 29 )
)
)
(assert (not (diagonal-threat r22 22 r23 23 )
)
)
(assert (not (diagonal-threat r22 22 r24 24 )
)
)
(assert (not (diagonal-threat r22 22 r25 25 )
)
)
(assert (not (diagonal-threat r22 22 r26 26 )
)
)
(assert (not (diagonal-threat r22 22 r27 27 )
)
)
(assert (not (diagonal-threat r22 22 r28 28 )
)
)
(assert (not (diagonal-threat r22 22 r29 29 )
)
)
(assert (not (diagonal-threat r23 23 r24 24 )
)
)
(assert (not (diagonal-threat r23 23 r25 25 )
)
)
(assert (not (diagonal-threat r23 23 r26 26 )
)
)
(assert (not (diagonal-threat r23 23 r27 27 )
)
)
(assert (not (diagonal-threat r23 23 r28 28 )
)
)
(assert (not (diagonal-threat r23 23 r29 29 )
)
)
(assert (not (diagonal-threat r24 24 r25 25 )
)
)
(assert (not (diagonal-threat r24 24 r26 26 )
)
)
(assert (not (diagonal-threat r24 24 r27 27 )
)
)
(assert (not (diagonal-threat r24 24 r28 28 )
)
)
(assert (not (diagonal-threat r24 24 r29 29 )
)
)
(assert (not (diagonal-threat r25 25 r26 26 )
)
)
(assert (not (diagonal-threat r25 25 r27 27 )
)
)
(assert (not (diagonal-threat r25 25 r28 28 )
)
)
(assert (not (diagonal-threat r25 25 r29 29 )
)
)
(assert (not (diagonal-threat r26 26 r27 27 )
)
)
(assert (not (diagonal-threat r26 26 r28 28 )
)
)
(assert (not (diagonal-threat r26 26 r29 29 )
)
)
(assert (not (diagonal-threat r27 27 r28 28 )
)
)
(assert (not (diagonal-threat r27 27 r29 29 )
)
)
(assert (not (diagonal-threat r28 28 r29 29 )
)
)
(echo "test" )
(check-sat )
(get-model )
